75
[15,16,17,18,19,20,21,22,23,24,25,26,27,28,29,30,31,32,33,34,35,36,37,38,39,40,41,42,43,44,45,46,47,48,49,50,51,52,53,54,55,56,57,58,59,60]
[17,25,25,15,15,16,15,13,9,12,16,18,17,14,19,19,16,11,13,19,12,12,13,17,15,18,15,18,12,15,15,25,12,13,13,20,13,15,24,24,17,18,16,19,20,15]
